&CONTROL
    calculation = 'scf'
    title = 'Co-CFC'
    outdir = './tmp/'
    prefix = 'Co-CFC'
    etot_conv_thr = 1d-5
    pseudo_dir = './pseudos/'
/
&SYSTEM
    ibrav = 2
    celldm(1) = 6.61404407221
    nat = 1
    ntyp = 1
    nspin = 2
    starting_magnetization(1) = 2.5
    ecutwfc = 90
    occupations = 'smearing'
    smearing = 'mv'
    degauss = 0.001
/
&ELECTRONS
/

ATOMIC_SPECIES
 Co 58.933 co_pbe_v1.2.uspp.F.UPF

ATOMIC_POSITIONS crystal
 Co 0.0 0.0 0.0

K_POINTS automatic
20 20 20 1 1 1
